c FILE /home/rafael/Documents/HappySet/MIHS/inputs/happygen/output/graph_d_regular_k3_p0.2_v100_20241127_084012.txt
c SOURCE This is a d-regular graph formed for the happy graph colouring problem.
c DESCRIPTION It was generated using the problem generator of Rhyd Lewis
c
c GRAPH STATS
c Seed                             = -1367825322
c Number of Nodes                  = 100
c Number of colours k              = 3
c Number of pre-assignments        = 20
c Degree of all vertices           = 6
c Density                          = 0.0606061
c 
c The degrees of nodes 1 to 100, respectively, are as follows 
c [6, 6, 6, 6, 6, 6, 6, 6, 6, 6, 6, 6, 6, 6, 6, 6, 6, 6, 6, 6, 6, 6, 6, 6, 6, 6, 
c  6, 6, 6, 6, 6, 6, 6, 6, 6, 6, 6, 6, 6, 6, 6, 6, 6, 6, 6, 6, 6, 6, 6, 6, 6, 
c  6, 6, 6, 6, 6, 6, 6, 6, 6, 6, 6, 6, 6, 6, 6, 6, 6, 6, 6, 6, 6, 6, 6, 6, 6, 
c  6, 6, 6, 6, 6, 6, 6, 6, 6, 6, 6, 6, 6, 6, 6, 6, 6, 6, 6, 6, 6, 6, 6, 6] 
c  
p edge 100 300 3
e 1 28
e 1 36
e 1 62
e 1 70
e 1 77
e 1 96
e 2 8
e 2 10
e 2 31
e 2 38
e 2 39
e 2 79
e 3 31
e 3 37
e 3 53
e 3 78
e 3 91
e 3 98
e 4 10
e 4 37
e 4 52
e 4 59
e 4 68
e 4 75
e 5 27
e 5 52
e 5 65
e 5 69
e 5 73
e 5 91
e 6 7
e 6 13
e 6 29
e 6 32
e 6 68
e 6 100
e 7 43
e 7 45
e 7 57
e 7 79
e 7 83
e 8 15
e 8 55
e 8 60
e 8 70
e 8 95
e 9 17
e 9 37
e 9 39
e 9 64
e 9 79
e 9 92
e 10 29
e 10 54
e 10 70
e 10 98
e 11 15
e 11 20
e 11 25
e 11 38
e 11 41
e 11 100
e 12 28
e 12 30
e 12 55
e 12 66
e 12 84
e 12 92
e 13 22
e 13 30
e 13 34
e 13 55
e 13 75
e 14 16
e 14 43
e 14 56
e 14 81
e 14 84
e 14 86
e 15 31
e 15 43
e 15 54
e 15 89
e 16 41
e 16 67
e 16 83
e 16 95
e 16 96
e 17 35
e 17 49
e 17 55
e 17 59
e 17 85
e 18 21
e 18 24
e 18 54
e 18 63
e 18 71
e 18 86
e 19 23
e 19 58
e 19 67
e 19 76
e 19 78
e 19 79
e 20 31
e 20 67
e 20 86
e 20 93
e 20 94
e 21 27
e 21 39
e 21 69
e 21 74
e 21 93
e 22 28
e 22 45
e 22 50
e 22 52
e 22 98
e 23 35
e 23 59
e 23 63
e 23 81
e 23 85
e 24 33
e 24 48
e 24 59
e 24 83
e 24 88
e 25 49
e 25 51
e 25 64
e 25 82
e 25 89
e 26 28
e 26 57
e 26 80
e 26 87
e 26 90
e 26 93
e 27 29
e 27 40
e 27 46
e 27 99
e 28 71
e 28 72
e 29 79
e 29 93
e 29 100
e 30 41
e 30 45
e 30 54
e 30 86
e 31 58
e 31 91
e 32 40
e 32 68
e 32 86
e 32 87
e 32 99
e 33 51
e 33 53
e 33 57
e 33 78
e 33 88
e 34 51
e 34 61
e 34 72
e 34 94
e 34 97
e 35 57
e 35 64
e 35 65
e 35 69
e 36 45
e 36 59
e 36 61
e 36 75
e 36 81
e 37 44
e 37 53
e 37 84
e 38 47
e 38 82
e 38 83
e 38 86
e 39 44
e 39 59
e 39 88
e 40 45
e 40 48
e 40 62
e 40 65
e 41 49
e 41 73
e 41 74
e 42 44
e 42 57
e 42 67
e 42 77
e 42 89
e 42 96
e 43 61
e 43 76
e 43 77
e 44 46
e 44 62
e 44 100
e 45 88
e 46 61
e 46 66
e 46 72
e 46 95
e 47 73
e 47 74
e 47 89
e 47 92
e 47 100
e 48 69
e 48 72
e 48 73
e 48 91
e 49 62
e 49 82
e 49 92
e 50 64
e 50 73
e 50 74
e 50 95
e 50 96
e 51 75
e 51 82
e 51 99
e 52 62
e 52 70
e 52 90
e 53 56
e 53 80
e 53 94
e 54 68
e 54 81
e 55 58
e 55 76
e 56 61
e 56 80
e 56 89
e 56 97
e 57 85
e 58 68
e 58 93
e 58 97
e 60 70
e 60 76
e 60 87
e 60 98
e 60 99
e 61 97
e 62 65
e 63 64
e 63 76
e 63 87
e 63 97
e 64 87
e 65 84
e 65 90
e 66 75
e 66 82
e 66 90
e 66 91
e 67 84
e 67 100
e 68 97
e 69 72
e 69 90
e 70 77
e 71 77
e 71 80
e 71 81
e 71 82
e 72 89
e 73 83
e 74 90
e 74 92
e 75 94
e 76 77
e 78 80
e 78 85
e 78 91
e 79 87
e 80 85
e 81 94
e 83 88
e 84 96
e 85 98
e 88 94
e 92 93
e 95 98
e 95 99
e 96 99
n 8 3
n 16 1
n 20 3
n 29 3
n 34 2
n 35 2
n 37 3
n 38 2
n 41 1
n 42 2
n 46 2
n 47 2
n 48 1
n 50 1
n 52 3
n 58 1
n 70 3
n 81 2
n 84 3
n 98 2
